(declare-const x0 Real)
(assert (<= 0.0 x0))
(declare-const x1 Real)
(assert (<= 0.0 x1))

(assert (let ((.def_0 (max (* 57.295780 (atan (abs (/ (- 0.360351 x0) (+ 1.020677 x1))))) (* 57.295780 (atan (abs (/ (- 0.362632 x0) (+ 1.014368 x1))))) (* 57.295780 (atan (abs (/ (- 0.364941 x0) (+ 1.008019 x1))))) (* 57.295780 (atan (abs (/ (- 0.367281 x0) (+ 1.001629 x1))))) (* 57.295780 (atan (abs (/ (- 0.369650 x0) (+ 0.995198 x1))))) (* 57.295780 (atan (abs (/ (- 0.372051 x0) (+ 0.988726 x1))))) (* 57.295780 (atan (abs (/ (- 0.374482 x0) (+ 0.982211 x1))))) (* 57.295780 (atan (abs (/ (- 0.376946 x0) (+ 0.975654 x1))))) (* 57.295780 (atan (abs (/ (- 0.379442 x0) (+ 0.969053 x1))))) (* 57.295780 (atan (abs (/ (- 0.381972 x0) (+ 0.962408 x1))))) (* 57.295780 (atan (abs (/ (- 0.384535 x0) (+ 0.955719 x1))))) (* 57.295780 (atan (abs (/ (- 0.387134 x0) (+ 0.948985 x1))))) (* 57.295780 (atan (abs (/ (- 0.389767 x0) (+ 0.942206 x1))))) (* 57.295780 (atan (abs (/ (- 0.392437 x0) (+ 0.935380 x1))))) (* 57.295780 (atan (abs (/ (- 0.395143 x0) (+ 0.928507 x1))))) (* 57.295780 (atan (abs (/ (- 0.397887 x0) (+ 0.921586 x1))))) (* 57.295780 (atan (abs (/ (- 0.400670 x0) (+ 0.914618 x1))))) (* 57.295780 (atan (abs (/ (- 0.403491 x0) (+ 0.907600 x1))))) (* 57.295780 (atan (abs (/ (- 0.406353 x0) (+ 0.900533 x1))))) (* 57.295780 (atan (abs (/ (- 0.409256 x0) (+ 0.893415 x1))))) (* 57.295780 (atan (abs (/ (- 0.412200 x0) (+ 0.886247 x1))))) (* 57.295780 (atan (abs (/ (- 0.415187 x0) (+ 0.879027 x1))))) (* 57.295780 (atan (abs (/ (- 0.418217 x0) (+ 0.871754 x1))))) (* 57.295780 (atan (abs (/ (- 0.421292 x0) (+ 0.864428 x1))))) (* 57.295780 (atan (abs (/ (- 0.424413 x0) (+ 0.857048 x1))))) (* 57.295780 (atan (abs (/ (- 0.427580 x0) (+ 0.849613 x1))))) (* 57.295780 (atan (abs (/ (- 0.430795 x0) (+ 0.842122 x1))))) (* 57.295780 (atan (abs (/ (- 0.434059 x0) (+ 0.834575 x1))))) (* 57.295780 (atan (abs (/ (- 0.437372 x0) (+ 0.826970 x1))))) (* 57.295780 (atan (abs (/ (- 0.440737 x0) (+ 0.819307 x1))))) (* 57.295780 (atan (abs (/ (- 0.444153 x0) (+ 0.811585 x1))))) (* 57.295780 (atan (abs (/ (- 0.447623 x0) (+ 0.803803 x1))))) (* 57.295780 (atan (abs (/ (- 0.451148 x0) (+ 0.795960 x1))))) (* 57.295780 (atan (abs (/ (- 0.454728 x0) (+ 0.788055 x1))))) (* 57.295780 (atan (abs (/ (- 0.458366 x0) (+ 0.780087 x1))))) (* 57.295780 (atan (abs (/ (- 0.462063 x0) (+ 0.772055 x1))))) (* 57.295780 (atan (abs (/ (- 0.465819 x0) (+ 0.763957 x1))))) (* 57.295780 (atan (abs (/ (- 0.469638 x0) (+ 0.755794 x1))))) (* 57.295780 (atan (abs (/ (- 0.473519 x0) (+ 0.747564 x1))))) (* 57.295780 (atan (abs (/ (- 0.477465 x0) (+ 0.739265 x1))))) (* 57.295780 (atan (abs (/ (- 0.481477 x0) (+ 0.730897 x1))))) (* 57.295780 (atan (abs (/ (- 0.485557 x0) (+ 0.722458 x1))))) (* 57.295780 (atan (abs (/ (- 0.489708 x0) (+ 0.713947 x1))))) (* 57.295780 (atan (abs (/ (- 0.493929 x0) (+ 0.705363 x1))))) (* 57.295780 (atan (abs (/ (- 0.498224 x0) (+ 0.696705 x1))))) (* 57.295780 (atan (abs (/ (- 0.502595 x0) (+ 0.687971 x1))))) (* 57.295780 (atan (abs (/ (- 0.507042 x0) (+ 0.679161 x1))))) (* 57.295780 (atan (abs (/ (- 0.511569 x0) (+ 0.670272 x1))))) (* 57.295780 (atan (abs (/ (- 0.516178 x0) (+ 0.661303 x1))))) (* 57.295780 (atan (abs (/ (- 0.520871 x0) (+ 0.652253 x1))))) (* 57.295780 (atan (abs (/ (- 0.525649 x0) (+ 0.643121 x1))))) (* 57.295780 (atan (abs (/ (- 0.530516 x0) (+ 0.633904 x1))))) (* 57.295780 (atan (abs (/ (- 0.535475 x0) (+ 0.624602 x1))))) (* 57.295780 (atan (abs (/ (- 0.540526 x0) (+ 0.615212 x1))))) (* 57.295780 (atan (abs (/ (- 0.545674 x0) (+ 0.605733 x1))))) (* 57.295780 (atan (abs (/ (- 0.550921 x0) (+ 0.596164 x1))))) (* 57.295780 (atan (abs (/ (- 0.556270 x0) (+ 0.586502 x1))))) (* 57.295780 (atan (abs (/ (- 0.561723 x0) (+ 0.576746 x1))))) (* 57.295780 (atan (abs (/ (- 0.567285 x0) (+ 0.566894 x1))))) (* 57.295780 (atan (abs (/ (- 0.572958 x0) (+ 0.556943 x1))))) (* 57.295780 (atan (abs (/ (- 0.578745 x0) (+ 0.546893 x1))))) (* 57.295780 (atan (abs (/ (- 0.584651 x0) (+ 0.536741 x1))))) (* 57.295780 (atan (abs (/ (- 0.590678 x0) (+ 0.526484 x1))))) (* 57.295780 (atan (abs (/ (- 0.596831 x0) (+ 0.516121 x1))))) (* 57.295780 (atan (abs (/ (- 0.603113 x0) (+ 0.505650 x1))))) (* 57.295780 (atan (abs (/ (- 0.609530 x0) (+ 0.495068 x1))))) (* 57.295780 (atan (abs (/ (- 0.616084 x0) (+ 0.484373 x1))))) (* 57.295780 (atan (abs (/ (- 0.622780 x0) (+ 0.473562 x1))))) (* 57.295780 (atan (abs (/ (- 0.629624 x0) (+ 0.462633 x1))))) (* 57.295780 (atan (abs (/ (- 0.636620 x0) (+ 0.451583 x1))))) (* 57.295780 (atan (abs (/ (- 0.643773 x0) (+ 0.440409 x1))))) (* 57.295780 (atan (abs (/ (- 0.651088 x0) (+ 0.429110 x1))))) (* 57.295780 (atan (abs (/ (- 0.658572 x0) (+ 0.417681 x1))))) (* 57.295780 (atan (abs (/ (- 0.666230 x0) (+ 0.406120 x1))))) (* 57.295780 (atan (abs (/ (- 0.674068 x0) (+ 0.394424 x1))))) (* 57.295780 (atan (abs (/ (- 0.682093 x0) (+ 0.382590 x1))))) (* 57.295780 (atan (abs (/ (- 0.690311 x0) (+ 0.370614 x1))))) (* 57.295780 (atan (abs (/ (- 0.698729 x0) (+ 0.358492 x1))))) (* 57.295780 (atan (abs (/ (- 0.707355 x0) (+ 0.346222 x1))))) (* 57.295780 (atan (abs (/ (- 0.716197 x0) (+ 0.333800 x1))))) (* 57.295780 (atan (abs (/ (- 0.725263 x0) (+ 0.321221 x1))))) (* 57.295780 (atan (abs (/ (- 0.734561 x0) (+ 0.308482 x1))))) (* 57.295780 (atan (abs (/ (- 0.744101 x0) (+ 0.295578 x1))))) (* 57.295780 (atan (abs (/ (- 0.753892 x0) (+ 0.282506 x1))))) (* 57.295780 (atan (abs (/ (- 0.763944 x0) (+ 0.269261 x1))))) (* 57.295780 (atan (abs (/ (- 0.774267 x0) (+ 0.255838 x1))))) (* 57.295780 (atan (abs (/ (- 0.784874 x0) (+ 0.242232 x1))))) (* 57.295780 (atan (abs (/ (- 0.795775 x0) (+ 0.228439 x1))))) (* 57.295780 (atan (abs (/ (- 0.806983 x0) (+ 0.214453 x1))))) (* 57.295780 (atan (abs (/ (- 0.818511 x0) (+ 0.200268 x1))))) (* 57.295780 (atan (abs (/ (- 0.830374 x0) (+ 0.185880 x1))))) (* 57.295780 (atan (abs (/ (- 0.842585 x0) (+ 0.171281 x1))))) (* 57.295780 (atan (abs (/ (- 0.855161 x0) (+ 0.156466 x1))))) (* 57.295780 (atan (abs (/ (- 0.868118 x0) (+ 0.141428 x1))))) (* 57.295780 (atan (abs (/ (- 0.881474 x0) (+ 0.126160 x1))))) (* 57.295780 (atan (abs (/ (- 0.895247 x0) (+ 0.110656 x1))))) (* 57.295780 (atan (abs (/ (- 0.909457 x0) (+ 0.094908 x1))))) (* 57.295780 (atan (abs (/ (- 0.924125 x0) (+ 0.078907 x1))))) (* 57.295780 (atan (abs (/ (- 0.939275 x0) (+ 0.062647 x1))))) (* 57.295780 (atan (abs (/ (- 0.954930 x0) (+ 0.046118 x1)))))))) (and (<= (- 30.0) .def_0)(<= .def_0 30.0))))

(minimize
	(+ (* 0.872665 (^ (+ 0.046118 (* 0.866025 x1) (* 0.500000 x0)) 2.0)) (* 0.872665 (^ (+ 0.046118 (* 0.500000 x1) (* (- 0.866025) x0)) 2.0)) (* 0.872665 (^ (+ 0.062647 (* 0.874620 x1) (* 0.484810 x0)) 2.0)) (* 0.872665 (^ (+ 0.062647 (* 0.484810 x1) (* (- 0.874620) x0)) 2.0)) (* 0.872665 (^ (+ 0.078907 (* 0.882948 x1) (* 0.469472 x0)) 2.0)) (* 0.872665 (^ (+ 0.078907 (* 0.469472 x1) (* (- 0.882948) x0)) 2.0)) (* 0.872665 (^ (+ 0.094908 (* 0.891007 x1) (* 0.453990 x0)) 2.0)) (* 0.872665 (^ (+ 0.094908 (* 0.453990 x1) (* (- 0.891007) x0)) 2.0)) (* 0.872665 (^ (+ 0.110656 (* 0.898794 x1) (* 0.438371 x0)) 2.0)) (* 0.872665 (^ (+ 0.110656 (* 0.438371 x1) (* (- 0.898794) x0)) 2.0)) (* 0.872665 (^ (+ 0.126160 (* 0.906308 x1) (* 0.422618 x0)) 2.0)) (* 0.872665 (^ (+ 0.126160 (* 0.422618 x1) (* (- 0.906308) x0)) 2.0)) (* 0.872665 (^ (+ 0.141428 (* 0.913545 x1) (* 0.406737 x0)) 2.0)) (* 0.872665 (^ (+ 0.141428 (* 0.406737 x1) (* (- 0.913545) x0)) 2.0)) (* 0.872665 (^ (+ 0.156466 (* 0.920505 x1) (* 0.390731 x0)) 2.0)) (* 0.872665 (^ (+ 0.156466 (* 0.390731 x1) (* (- 0.920505) x0)) 2.0)) (* 0.872665 (^ (+ 0.171281 (* 0.927184 x1) (* 0.374607 x0)) 2.0)) (* 0.872665 (^ (+ 0.171281 (* 0.374607 x1) (* (- 0.927184) x0)) 2.0)) (* 0.872665 (^ (+ 0.185880 (* 0.933580 x1) (* 0.358368 x0)) 2.0)) (* 0.872665 (^ (+ 0.185880 (* 0.358368 x1) (* (- 0.933580) x0)) 2.0)) (* 0.872665 (^ (+ 0.200268 (* 0.939693 x1) (* 0.342020 x0)) 2.0)) (* 0.872665 (^ (+ 0.200268 (* 0.342020 x1) (* (- 0.939693) x0)) 2.0)) (* 0.872665 (^ (+ 0.214453 (* 0.945519 x1) (* 0.325568 x0)) 2.0)) (* 0.872665 (^ (+ 0.214453 (* 0.325568 x1) (* (- 0.945519) x0)) 2.0)) (* 0.872665 (^ (+ 0.228439 (* 0.951057 x1) (* 0.309017 x0)) 2.0)) (* 0.872665 (^ (+ 0.228439 (* 0.309017 x1) (* (- 0.951057) x0)) 2.0)) (* 0.872665 (^ (+ 0.242232 (* 0.956305 x1) (* 0.292372 x0)) 2.0)) (* 0.872665 (^ (+ 0.242232 (* 0.292372 x1) (* (- 0.956305) x0)) 2.0)) (* 0.872665 (^ (+ 0.255838 (* 0.961262 x1) (* 0.275637 x0)) 2.0)) (* 0.872665 (^ (+ 0.255838 (* 0.275637 x1) (* (- 0.961262) x0)) 2.0)) (* 0.872665 (^ (+ 0.269261 (* 0.965926 x1) (* 0.258819 x0)) 2.0)) (* 0.872665 (^ (+ 0.269261 (* 0.258819 x1) (* (- 0.965926) x0)) 2.0)) (* 0.872665 (^ (+ 0.282506 (* 0.970296 x1) (* 0.241922 x0)) 2.0)) (* 0.872665 (^ (+ 0.282506 (* 0.241922 x1) (* (- 0.970296) x0)) 2.0)) (* 0.872665 (^ (+ 0.295578 (* 0.974370 x1) (* 0.224951 x0)) 2.0)) (* 0.872665 (^ (+ 0.295578 (* 0.224951 x1) (* (- 0.974370) x0)) 2.0)) (* 0.872665 (^ (+ 0.308482 (* 0.978148 x1) (* 0.207912 x0)) 2.0)) (* 0.872665 (^ (+ 0.308482 (* 0.207912 x1) (* (- 0.978148) x0)) 2.0)) (* 0.872665 (^ (+ 0.321221 (* 0.981627 x1) (* 0.190809 x0)) 2.0)) (* 0.872665 (^ (+ 0.321221 (* 0.190809 x1) (* (- 0.981627) x0)) 2.0)) (* 0.872665 (^ (+ 0.333800 (* 0.984808 x1) (* 0.173648 x0)) 2.0)) (* 0.872665 (^ (+ 0.333800 (* 0.173648 x1) (* (- 0.984808) x0)) 2.0)) (* 0.872665 (^ (+ 0.346222 (* 0.987688 x1) (* 0.156434 x0)) 2.0)) (* 0.872665 (^ (+ 0.346222 (* 0.156434 x1) (* (- 0.987688) x0)) 2.0)) (* 0.872665 (^ (+ 0.358492 (* 0.990268 x1) (* 0.139173 x0)) 2.0)) (* 0.872665 (^ (+ 0.358492 (* 0.139173 x1) (* (- 0.990268) x0)) 2.0)) (* 0.872665 (^ (+ 0.370614 (* 0.992546 x1) (* 0.121869 x0)) 2.0)) (* 0.872665 (^ (+ 0.370614 (* 0.121869 x1) (* (- 0.992546) x0)) 2.0)) (* 0.872665 (^ (+ 0.382590 (* 0.994522 x1) (* 0.104528 x0)) 2.0)) (* 0.872665 (^ (+ 0.382590 (* 0.104528 x1) (* (- 0.994522) x0)) 2.0)) (* 0.872665 (^ (+ 0.394424 (* 0.996195 x1) (* 0.087156 x0)) 2.0)) (* 0.872665 (^ (+ 0.394424 (* 0.087156 x1) (* (- 0.996195) x0)) 2.0)) (* 0.872665 (^ (+ 0.406120 (* 0.997564 x1) (* 0.069756 x0)) 2.0)) (* 0.872665 (^ (+ 0.406120 (* 0.069756 x1) (* (- 0.997564) x0)) 2.0)) (* 0.872665 (^ (+ 0.417681 (* 0.998630 x1) (* 0.052336 x0)) 2.0)) (* 0.872665 (^ (+ 0.417681 (* 0.052336 x1) (* (- 0.998630) x0)) 2.0)) (* 0.872665 (^ (+ 0.429110 (* 0.999391 x1) (* 0.034899 x0)) 2.0)) (* 0.872665 (^ (+ 0.429110 (* 0.034899 x1) (* (- 0.999391) x0)) 2.0)) (* 0.872665 (^ (+ 0.440409 (* 0.999848 x1) (* 0.017452 x0)) 2.0)) (* 0.872665 (^ (+ 0.440409 (* 0.017452 x1) (* (- 0.999848) x0)) 2.0)) (* 0.872665 (^ (+ 0.451583 x1 (* 0.000000 x0)) 2.0)) (* 0.872665 (^ (- (+ 0.451583 (* 0.000000 x1)) x0) 2.0)) (* 0.872665 (^ (+ 0.462633 (* 0.999848 x1) (* (- 0.017452) x0)) 2.0)) (* 0.872665 (^ (+ 0.462633 (* (- 0.017452) x1) (* (- 0.999848) x0)) 2.0)) (* 0.872665 (^ (+ 0.473562 (* 0.999391 x1) (* (- 0.034899) x0)) 2.0)) (* 0.872665 (^ (+ 0.473562 (* (- 0.034899) x1) (* (- 0.999391) x0)) 2.0)) (* 0.872665 (^ (+ 0.484373 (* 0.998630 x1) (* (- 0.052336) x0)) 2.0)) (* 0.872665 (^ (+ 0.484373 (* (- 0.052336) x1) (* (- 0.998630) x0)) 2.0)) (* 0.872665 (^ (+ 0.495068 (* 0.997564 x1) (* (- 0.069756) x0)) 2.0)) (* 0.872665 (^ (+ 0.495068 (* (- 0.069756) x1) (* (- 0.997564) x0)) 2.0)) (* 0.872665 (^ (+ 0.505650 (* 0.996195 x1) (* (- 0.087156) x0)) 2.0)) (* 0.872665 (^ (+ 0.505650 (* (- 0.087156) x1) (* (- 0.996195) x0)) 2.0)) (* 0.872665 (^ (+ 0.516121 (* 0.994522 x1) (* (- 0.104528) x0)) 2.0)) (* 0.872665 (^ (+ 0.516121 (* (- 0.104528) x1) (* (- 0.994522) x0)) 2.0)) (* 0.872665 (^ (+ 0.526484 (* 0.992546 x1) (* (- 0.121869) x0)) 2.0)) (* 0.872665 (^ (+ 0.526484 (* (- 0.121869) x1) (* (- 0.992546) x0)) 2.0)) (* 0.872665 (^ (+ 0.536741 (* 0.990268 x1) (* (- 0.139173) x0)) 2.0)) (* 0.872665 (^ (+ 0.536741 (* (- 0.139173) x1) (* (- 0.990268) x0)) 2.0)) (* 0.872665 (^ (+ 0.546893 (* 0.987688 x1) (* (- 0.156434) x0)) 2.0)) (* 0.872665 (^ (+ 0.546893 (* (- 0.156434) x1) (* (- 0.987688) x0)) 2.0)) (* 0.872665 (^ (+ 0.556943 (* 0.984808 x1) (* (- 0.173648) x0)) 2.0)) (* 0.872665 (^ (+ 0.556943 (* (- 0.173648) x1) (* (- 0.984808) x0)) 2.0)) (* 0.872665 (^ (+ 0.566894 (* 0.981627 x1) (* (- 0.190809) x0)) 2.0)) (* 0.872665 (^ (+ 0.566894 (* (- 0.190809) x1) (* (- 0.981627) x0)) 2.0)) (* 0.872665 (^ (+ 0.576746 (* 0.978148 x1) (* (- 0.207912) x0)) 2.0)) (* 0.872665 (^ (+ 0.576746 (* (- 0.207912) x1) (* (- 0.978148) x0)) 2.0)) (* 0.872665 (^ (+ 0.586502 (* 0.974370 x1) (* (- 0.224951) x0)) 2.0)) (* 0.872665 (^ (+ 0.586502 (* (- 0.224951) x1) (* (- 0.974370) x0)) 2.0)) (* 0.872665 (^ (+ 0.596164 (* 0.970296 x1) (* (- 0.241922) x0)) 2.0)) (* 0.872665 (^ (+ 0.596164 (* (- 0.241922) x1) (* (- 0.970296) x0)) 2.0)) (* 0.872665 (^ (+ 0.605733 (* 0.965926 x1) (* (- 0.258819) x0)) 2.0)) (* 0.872665 (^ (+ 0.605733 (* (- 0.258819) x1) (* (- 0.965926) x0)) 2.0)) (* 0.872665 (^ (+ 0.615212 (* 0.961262 x1) (* (- 0.275637) x0)) 2.0)) (* 0.872665 (^ (+ 0.615212 (* (- 0.275637) x1) (* (- 0.961262) x0)) 2.0)) (* 0.872665 (^ (+ 0.624602 (* 0.956305 x1) (* (- 0.292372) x0)) 2.0)) (* 0.872665 (^ (+ 0.624602 (* (- 0.292372) x1) (* (- 0.956305) x0)) 2.0)) (* 0.872665 (^ (+ 0.633904 (* 0.951057 x1) (* (- 0.309017) x0)) 2.0)) (* 0.872665 (^ (+ 0.633904 (* (- 0.309017) x1) (* (- 0.951057) x0)) 2.0)) (* 0.872665 (^ (+ 0.643121 (* 0.945519 x1) (* (- 0.325568) x0)) 2.0)) (* 0.872665 (^ (+ 0.643121 (* (- 0.325568) x1) (* (- 0.945519) x0)) 2.0)) (* 0.872665 (^ (+ 0.652253 (* 0.939693 x1) (* (- 0.342020) x0)) 2.0)) (* 0.872665 (^ (+ 0.652253 (* (- 0.342020) x1) (* (- 0.939693) x0)) 2.0)) (* 0.872665 (^ (+ 0.661303 (* 0.933580 x1) (* (- 0.358368) x0)) 2.0)) (* 0.872665 (^ (+ 0.661303 (* (- 0.358368) x1) (* (- 0.933580) x0)) 2.0)) (* 0.872665 (^ (+ 0.670272 (* 0.927184 x1) (* (- 0.374607) x0)) 2.0)) (* 0.872665 (^ (+ 0.670272 (* (- 0.374607) x1) (* (- 0.927184) x0)) 2.0)) (* 0.872665 (^ (+ 0.679161 (* 0.920505 x1) (* (- 0.390731) x0)) 2.0)) (* 0.872665 (^ (+ 0.679161 (* (- 0.390731) x1) (* (- 0.920505) x0)) 2.0)) (* 0.872665 (^ (+ 0.687971 (* 0.913545 x1) (* (- 0.406737) x0)) 2.0)) (* 0.872665 (^ (+ 0.687971 (* (- 0.406737) x1) (* (- 0.913545) x0)) 2.0)) (* 0.872665 (^ (+ 0.696705 (* 0.906308 x1) (* (- 0.422618) x0)) 2.0)) (* 0.872665 (^ (+ 0.696705 (* (- 0.422618) x1) (* (- 0.906308) x0)) 2.0)) (* 0.872665 (^ (+ 0.705363 (* 0.898794 x1) (* (- 0.438371) x0)) 2.0)) (* 0.872665 (^ (+ 0.705363 (* (- 0.438371) x1) (* (- 0.898794) x0)) 2.0)) (* 0.872665 (^ (+ 0.713947 (* 0.891007 x1) (* (- 0.453990) x0)) 2.0)) (* 0.872665 (^ (+ 0.713947 (* (- 0.453990) x1) (* (- 0.891007) x0)) 2.0)) (* 0.872665 (^ (+ 0.722458 (* 0.882948 x1) (* (- 0.469472) x0)) 2.0)) (* 0.872665 (^ (+ 0.722458 (* (- 0.469472) x1) (* (- 0.882948) x0)) 2.0)) (* 0.872665 (^ (+ 0.730897 (* 0.874620 x1) (* (- 0.484810) x0)) 2.0)) (* 0.872665 (^ (+ 0.730897 (* (- 0.484810) x1) (* (- 0.874620) x0)) 2.0)) (* 0.872665 (^ (+ 0.739265 (* 0.866025 x1) (* (- 0.500000) x0)) 2.0)) (* 0.872665 (^ (+ 0.739265 (* (- 0.500000) x1) (* (- 0.866025) x0)) 2.0)) (* 0.872665 (^ (+ 0.747564 (* 0.857167 x1) (* (- 0.515038) x0)) 2.0)) (* 0.872665 (^ (+ 0.747564 (* (- 0.515038) x1) (* (- 0.857167) x0)) 2.0)) (* 0.872665 (^ (+ 0.755794 (* 0.848048 x1) (* (- 0.529919) x0)) 2.0)) (* 0.872665 (^ (+ 0.755794 (* (- 0.529919) x1) (* (- 0.848048) x0)) 2.0)) (* 0.872665 (^ (+ 0.763957 (* 0.838671 x1) (* (- 0.544639) x0)) 2.0)) (* 0.872665 (^ (+ 0.763957 (* (- 0.544639) x1) (* (- 0.838671) x0)) 2.0)) (* 0.872665 (^ (+ 0.772055 (* 0.829038 x1) (* (- 0.559193) x0)) 2.0)) (* 0.872665 (^ (+ 0.772055 (* (- 0.559193) x1) (* (- 0.829038) x0)) 2.0)) (* 0.872665 (^ (+ 0.780087 (* 0.819152 x1) (* (- 0.573576) x0)) 2.0)) (* 0.872665 (^ (+ 0.780087 (* (- 0.573576) x1) (* (- 0.819152) x0)) 2.0)) (* 0.872665 (^ (+ 0.788055 (* 0.809017 x1) (* (- 0.587785) x0)) 2.0)) (* 0.872665 (^ (+ 0.788055 (* (- 0.587785) x1) (* (- 0.809017) x0)) 2.0)) (* 0.872665 (^ (+ 0.795960 (* 0.798636 x1) (* (- 0.601815) x0)) 2.0)) (* 0.872665 (^ (+ 0.795960 (* (- 0.601815) x1) (* (- 0.798636) x0)) 2.0)) (* 0.872665 (^ (+ 0.803803 (* 0.788011 x1) (* (- 0.615661) x0)) 2.0)) (* 0.872665 (^ (+ 0.803803 (* (- 0.615661) x1) (* (- 0.788011) x0)) 2.0)) (* 0.872665 (^ (+ 0.811585 (* 0.777146 x1) (* (- 0.629320) x0)) 2.0)) (* 0.872665 (^ (+ 0.811585 (* (- 0.629320) x1) (* (- 0.777146) x0)) 2.0)) (* 0.872665 (^ (+ 0.819307 (* 0.766044 x1) (* (- 0.642788) x0)) 2.0)) (* 0.872665 (^ (+ 0.819307 (* (- 0.642788) x1) (* (- 0.766044) x0)) 2.0)) (* 0.872665 (^ (+ 0.826970 (* 0.754710 x1) (* (- 0.656059) x0)) 2.0)) (* 0.872665 (^ (+ 0.826970 (* (- 0.656059) x1) (* (- 0.754710) x0)) 2.0)) (* 0.872665 (^ (+ 0.834575 (* 0.743145 x1) (* (- 0.669131) x0)) 2.0)) (* 0.872665 (^ (+ 0.834575 (* (- 0.669131) x1) (* (- 0.743145) x0)) 2.0)) (* 0.872665 (^ (+ 0.842122 (* 0.731354 x1) (* (- 0.681998) x0)) 2.0)) (* 0.872665 (^ (+ 0.842122 (* (- 0.681998) x1) (* (- 0.731354) x0)) 2.0)) (* 0.872665 (^ (+ 0.849613 (* 0.719340 x1) (* (- 0.694658) x0)) 2.0)) (* 0.872665 (^ (+ 0.849613 (* (- 0.694658) x1) (* (- 0.719340) x0)) 2.0)) (* 0.872665 (^ (+ 0.857048 (* 0.707107 x1) (* (- 0.707107) x0)) 2.0)) (* 0.872665 (^ (+ 0.857048 (* (- 0.707107) x1) (* (- 0.707107) x0)) 2.0)) (* 0.872665 (^ (+ 0.864428 (* 0.694658 x1) (* (- 0.719340) x0)) 2.0)) (* 0.872665 (^ (+ 0.864428 (* (- 0.719340) x1) (* (- 0.694658) x0)) 2.0)) (* 0.872665 (^ (+ 0.871754 (* 0.681998 x1) (* (- 0.731354) x0)) 2.0)) (* 0.872665 (^ (+ 0.871754 (* (- 0.731354) x1) (* (- 0.681998) x0)) 2.0)) (* 0.872665 (^ (+ 0.879027 (* 0.669131 x1) (* (- 0.743145) x0)) 2.0)) (* 0.872665 (^ (+ 0.879027 (* (- 0.743145) x1) (* (- 0.669131) x0)) 2.0)) (* 0.872665 (^ (+ 0.886247 (* 0.656059 x1) (* (- 0.754710) x0)) 2.0)) (* 0.872665 (^ (+ 0.886247 (* (- 0.754710) x1) (* (- 0.656059) x0)) 2.0)) (* 0.872665 (^ (+ 0.893415 (* 0.642788 x1) (* (- 0.766044) x0)) 2.0)) (* 0.872665 (^ (+ 0.893415 (* (- 0.766044) x1) (* (- 0.642788) x0)) 2.0)) (* 0.872665 (^ (+ 0.900533 (* 0.629320 x1) (* (- 0.777146) x0)) 2.0)) (* 0.872665 (^ (+ 0.900533 (* (- 0.777146) x1) (* (- 0.629320) x0)) 2.0)) (* 0.872665 (^ (+ 0.907600 (* 0.615661 x1) (* (- 0.788011) x0)) 2.0)) (* 0.872665 (^ (+ 0.907600 (* (- 0.788011) x1) (* (- 0.615661) x0)) 2.0)) (* 0.872665 (^ (+ 0.914618 (* 0.601815 x1) (* (- 0.798636) x0)) 2.0)) (* 0.872665 (^ (+ 0.914618 (* (- 0.798636) x1) (* (- 0.601815) x0)) 2.0)) (* 0.872665 (^ (+ 0.921586 (* 0.587785 x1) (* (- 0.809017) x0)) 2.0)) (* 0.872665 (^ (+ 0.921586 (* (- 0.809017) x1) (* (- 0.587785) x0)) 2.0)) (* 0.872665 (^ (+ 0.928507 (* 0.573576 x1) (* (- 0.819152) x0)) 2.0)) (* 0.872665 (^ (+ 0.928507 (* (- 0.819152) x1) (* (- 0.573576) x0)) 2.0)) (* 0.872665 (^ (+ 0.935380 (* 0.559193 x1) (* (- 0.829038) x0)) 2.0)) (* 0.872665 (^ (+ 0.935380 (* (- 0.829038) x1) (* (- 0.559193) x0)) 2.0)) (* 0.872665 (^ (+ 0.942206 (* 0.544639 x1) (* (- 0.838671) x0)) 2.0)) (* 0.872665 (^ (+ 0.942206 (* (- 0.838671) x1) (* (- 0.544639) x0)) 2.0)) (* 0.872665 (^ (+ 0.948985 (* 0.529919 x1) (* (- 0.848048) x0)) 2.0)) (* 0.872665 (^ (+ 0.948985 (* (- 0.848048) x1) (* (- 0.529919) x0)) 2.0)) (* 0.872665 (^ (+ 0.955719 (* 0.515038 x1) (* (- 0.857167) x0)) 2.0)) (* 0.872665 (^ (+ 0.955719 (* (- 0.857167) x1) (* (- 0.515038) x0)) 2.0)) (* 0.872665 (^ (+ 0.962408 (* 0.500000 x1) (* (- 0.866025) x0)) 2.0)) (* 0.872665 (^ (+ 0.962408 (* (- 0.866025) x1) (* (- 0.500000) x0)) 2.0)) (* 0.872665 (^ (+ 0.969053 (* 0.484810 x1) (* (- 0.874620) x0)) 2.0)) (* 0.872665 (^ (+ 0.969053 (* (- 0.874620) x1) (* (- 0.484810) x0)) 2.0)) (* 0.872665 (^ (+ 0.975654 (* 0.469472 x1) (* (- 0.882948) x0)) 2.0)) (* 0.872665 (^ (+ 0.975654 (* (- 0.882948) x1) (* (- 0.469472) x0)) 2.0)) (* 0.872665 (^ (+ 0.982211 (* 0.453990 x1) (* (- 0.891007) x0)) 2.0)) (* 0.872665 (^ (+ 0.982211 (* (- 0.891007) x1) (* (- 0.453990) x0)) 2.0)) (* 0.872665 (^ (+ 0.988726 (* 0.438371 x1) (* (- 0.898794) x0)) 2.0)) (* 0.872665 (^ (+ 0.988726 (* (- 0.898794) x1) (* (- 0.438371) x0)) 2.0)) (* 0.872665 (^ (+ 0.995198 (* 0.422618 x1) (* (- 0.906308) x0)) 2.0)) (* 0.872665 (^ (+ 0.995198 (* (- 0.906308) x1) (* (- 0.422618) x0)) 2.0)) (* 0.872665 (^ (+ 1.001629 (* 0.406737 x1) (* (- 0.913545) x0)) 2.0)) (* 0.872665 (^ (+ 1.001629 (* (- 0.913545) x1) (* (- 0.406737) x0)) 2.0)) (* 0.872665 (^ (+ 1.008019 (* 0.390731 x1) (* (- 0.920505) x0)) 2.0)) (* 0.872665 (^ (+ 1.008019 (* (- 0.920505) x1) (* (- 0.390731) x0)) 2.0)) (* 0.872665 (^ (+ 1.014368 (* 0.374607 x1) (* (- 0.927184) x0)) 2.0)) (* 0.872665 (^ (+ 1.014368 (* (- 0.927184) x1) (* (- 0.374607) x0)) 2.0)) (* 0.872665 (^ (+ 1.020677 (* 0.358368 x1) (* (- 0.933580) x0)) 2.0)) (* 0.872665 (^ (+ 1.020677 (* (- 0.933580) x1) (* (- 0.358368) x0)) 2.0)))
)
(check-sat)
(get-objectives)
(exit)

